% seed = 0

mint = 25;
% maxt = 127;

nActs = 62;
dur = [0,1,2,2,2,2,2,1,1,2,1,2,3,4,2,2,4,3,3,1,4,1,1,2,1,1,4,1,2,1,1,1,2,1,4,4,3,2,4,2,4,1,1,3,1,1,2,5,2,2,1,3,2,3,2,4,1,2,1,2,2,0];

nSkills = 15;
sreq = [| 0,0,0,0,0,0,0,0,0,0,0,0,0,0,0,
	| 0,0,0,0,0,2,0,0,1,0,0,0,0,0,0,
	| 0,0,1,1,0,1,0,0,0,1,0,0,0,0,0,
	| 0,0,1,0,1,0,0,0,1,0,0,1,1,0,0,
	| 0,0,0,0,0,0,1,1,0,0,0,0,0,0,0,
	| 0,0,0,0,0,1,0,1,0,0,0,0,0,0,0,
	| 0,1,0,0,0,2,1,0,0,0,0,1,0,0,0,
	| 0,0,0,0,0,1,0,1,1,0,0,1,0,1,0,
	| 0,0,0,0,1,0,0,0,0,1,0,0,1,0,0,
	| 0,1,0,1,0,0,0,1,1,0,0,0,1,0,0,
	| 0,0,0,1,0,0,0,0,0,0,0,0,0,0,0,
	| 0,0,0,1,0,1,0,0,0,0,0,0,0,0,0,
	| 0,0,0,1,0,0,0,0,0,0,0,1,0,0,0,
	| 0,1,0,0,0,0,0,0,0,0,0,0,0,0,0,
	| 0,0,0,0,0,1,0,0,0,1,0,0,0,0,0,
	| 0,0,1,0,0,1,0,0,0,0,0,0,0,0,1,
	| 0,0,0,0,0,0,0,0,1,0,0,0,0,0,0,
	| 0,0,0,0,0,1,0,0,0,0,0,0,0,0,0,
	| 0,0,0,0,0,0,0,0,0,0,1,0,0,0,0,
	| 0,0,0,0,0,1,0,0,1,0,1,0,0,0,0,
	| 0,0,0,0,0,0,0,0,2,0,0,0,0,0,0,
	| 0,0,0,0,0,1,0,0,1,1,0,0,0,0,0,
	| 0,0,0,0,1,1,0,0,1,0,0,0,0,0,0,
	| 0,0,0,0,1,0,0,0,0,0,0,1,0,0,1,
	| 0,0,1,0,0,1,0,1,1,0,1,0,0,0,0,
	| 0,1,0,0,0,0,0,0,2,1,0,0,0,0,1,
	| 0,0,0,0,0,1,0,0,1,0,0,0,0,0,0,
	| 0,0,0,0,0,0,0,1,0,0,0,0,0,0,0,
	| 0,0,0,0,0,0,0,0,0,0,0,0,0,1,0,
	| 0,0,0,0,0,1,0,0,0,0,0,0,0,0,0,
	| 0,0,0,1,0,1,0,0,0,0,1,0,0,1,0,
	| 0,0,0,0,0,1,0,0,0,0,1,0,0,0,0,
	| 0,0,0,0,0,0,1,0,0,0,0,0,1,0,0,
	| 0,0,0,0,1,0,0,2,0,0,0,0,0,1,0,
	| 0,1,0,0,0,0,0,0,0,0,0,0,0,0,0,
	| 0,0,0,0,0,0,0,1,0,0,0,0,0,0,0,
	| 0,0,1,0,1,0,0,2,0,0,0,0,0,0,1,
	| 0,0,1,0,0,0,0,0,0,0,0,0,0,0,0,
	| 0,0,0,0,1,0,0,0,0,0,0,0,0,0,0,
	| 0,0,0,0,0,0,0,0,0,0,0,0,0,0,1,
	| 0,0,0,0,1,0,1,0,0,0,0,0,0,0,0,
	| 0,0,0,0,0,1,0,0,0,0,0,0,0,0,0,
	| 0,1,0,0,0,2,1,0,0,0,0,1,0,0,0,
	| 0,0,0,0,1,1,0,1,0,0,0,1,0,1,0,
	| 0,1,0,0,0,0,1,0,1,0,1,0,0,0,0,
	| 0,0,0,0,0,0,0,1,0,0,0,0,0,0,0,
	| 0,0,0,0,0,0,0,0,0,1,0,0,0,0,0,
	| 0,0,0,0,0,0,0,1,0,0,0,0,0,0,0,
	| 0,0,1,0,0,0,0,0,1,0,1,0,0,0,0,
	| 0,0,0,0,0,0,0,0,1,0,0,1,0,1,0,
	| 0,0,0,0,1,0,0,0,2,0,0,1,0,0,0,
	| 0,0,0,0,0,1,0,0,0,1,0,0,0,0,0,
	| 1,0,0,0,0,0,1,1,0,0,0,1,0,0,0,
	| 0,1,0,0,0,1,0,0,0,0,0,0,0,0,0,
	| 0,0,0,0,1,1,0,0,1,0,0,1,0,0,0,
	| 0,0,0,0,0,1,0,0,2,0,1,0,0,0,1,
	| 0,0,0,0,1,0,0,0,1,0,0,0,1,0,0,
	| 0,0,0,1,0,1,0,0,2,0,0,0,0,0,0,
	| 0,1,0,0,0,1,0,1,2,0,0,0,0,0,0,
	| 0,0,0,1,0,0,1,0,0,1,0,1,1,0,0,
	| 0,0,0,0,0,0,0,0,1,0,0,0,0,0,0,
	| 0,0,0,0,0,0,0,0,0,0,0,0,0,0,0, |];

% SumOfsreq = 164;

nResources = 17;
mastery = [| false,false,false,false,false,false,false,false,false,false,false,false,false,false,true,
	| false,false,false,false,true,true,false,false,false,false,false,false,false,false,false,
	| false,true,true,false,false,false,false,false,false,false,false,false,false,false,false,
	| false,false,false,false,false,false,false,false,false,true,true,true,false,false,false,
	| true,true,true,true,true,true,false,false,false,false,false,true,false,false,true,
	| false,false,false,false,false,false,true,true,true,false,false,false,false,false,false,
	| false,false,false,true,true,true,false,false,false,false,false,false,false,false,false,
	| false,false,false,true,true,true,false,true,true,false,false,false,false,false,false,
	| false,false,false,false,false,true,false,false,false,false,false,false,false,false,false,
	| false,false,false,false,false,false,true,true,true,false,false,false,false,false,false,
	| false,false,false,false,false,false,true,true,true,false,false,false,true,true,true,
	| false,false,false,false,false,false,false,false,false,true,true,true,false,false,true,
	| false,false,false,false,false,false,false,false,true,false,false,false,false,false,false,
	| false,true,true,false,false,false,true,true,true,false,false,true,true,true,true,
	| false,false,false,true,true,true,false,false,false,false,false,false,true,true,true,
	| false,false,false,false,false,false,true,true,true,false,false,false,false,false,false,
	| false,false,false,false,false,false,false,false,false,false,false,false,false,false,true, |];

nPrecs = 131;
pred = [1,1,1,2,2,2,3,3,4,4,4,5,5,5,6,6,6,7,7,7,8,8,8,9,9,9,10,11,11,11,12,12,12,13,13,13,14,14,14,15,15,15,16,16,16,17,17,17,18,18,18,19,19,20,20,21,21,21,22,22,22,23,23,23,24,24,25,25,25,26,26,26,27,28,28,29,29,29,30,30,31,31,31,32,32,33,34,34,34,35,35,36,36,36,37,37,38,38,39,39,39,40,41,41,42,43,43,43,44,45,46,46,46,47,47,48,49,50,50,51,51,52,53,54,55,56,57,58,59,60,61];
succ = [2,3,4,9,7,8,14,38,17,10,5,35,6,31,26,13,53,27,21,32,41,19,28,11,12,38,24,27,36,21,18,22,23,34,43,28,20,15,16,35,36,21,18,29,40,30,22,24,34,28,32,57,35,37,29,42,30,54,25,55,40,33,41,27,29,31,36,53,32,49,58,45,39,33,47,34,45,39,33,44,50,53,40,49,44,58,52,55,48,51,56,42,46,50,43,39,42,61,56,55,48,47,49,46,44,58,45,46,51,51,52,47,48,59,54,57,50,52,56,59,60,54,60,57,59,61,61,60,62,62,62];

nUnrels = 996;
unpred = [2,2,2,2,2,2,2,2,2,2,2,2,2,2,2,2,2,2,3,3,3,3,3,3,3,3,3,3,3,3,3,3,3,3,3,3,3,3,3,4,4,4,4,4,4,4,4,4,4,4,4,4,4,4,4,4,5,5,5,5,5,5,5,5,5,5,5,5,5,5,5,5,5,5,5,5,5,5,5,5,5,5,5,5,5,6,6,6,6,6,6,6,6,6,6,6,6,6,6,6,6,6,6,6,6,6,6,6,6,6,6,6,6,6,6,6,6,7,7,7,7,7,7,7,7,7,7,7,7,7,7,7,7,7,7,7,7,7,7,7,7,7,7,7,7,7,7,7,7,7,8,8,8,8,8,8,8,8,8,8,8,8,8,8,8,8,8,8,8,8,8,8,8,8,8,8,8,8,8,8,8,8,8,8,9,9,9,9,9,9,9,9,9,9,9,9,9,9,9,9,10,10,10,10,10,10,10,10,10,10,10,10,10,10,10,10,10,10,10,10,10,10,10,10,10,10,10,10,10,10,10,11,11,11,11,11,11,11,11,11,11,11,11,11,11,11,11,11,11,11,11,11,11,11,11,11,11,11,11,12,12,12,12,12,12,12,12,12,12,12,12,12,12,12,12,12,12,13,13,13,13,13,13,13,13,13,13,13,13,13,13,13,13,13,13,13,13,13,13,13,13,13,13,13,13,13,13,13,14,14,14,14,14,14,14,14,14,14,14,14,15,15,15,15,15,15,15,15,15,15,15,15,15,15,15,15,15,15,15,15,15,15,15,15,15,15,16,16,16,16,16,16,16,16,16,16,16,16,16,16,16,16,16,16,16,16,16,17,17,17,17,17,17,17,17,17,17,17,17,17,18,18,18,18,18,18,18,18,18,18,18,18,18,18,18,18,18,18,18,18,18,18,18,18,19,19,19,19,19,19,19,19,19,19,19,19,19,19,19,19,19,19,19,19,19,19,19,19,19,19,19,19,19,19,19,19,19,19,19,20,20,20,20,20,20,20,20,20,20,20,20,20,20,20,20,20,20,20,20,20,20,21,21,21,21,21,21,21,21,21,21,21,21,21,21,21,21,21,21,21,21,21,21,21,21,21,21,21,21,21,22,22,22,22,22,22,22,22,22,22,22,22,22,22,22,22,22,22,23,23,23,23,23,23,23,23,23,23,23,23,23,23,23,23,23,23,23,23,24,24,24,24,24,24,24,24,24,24,24,24,24,24,24,24,24,24,25,25,25,25,25,25,25,25,25,25,25,25,25,25,25,25,25,25,26,26,26,26,26,26,26,26,26,26,26,26,26,26,26,26,26,26,26,26,26,26,26,27,27,27,27,27,27,27,27,27,27,27,27,27,27,27,27,27,27,27,27,27,27,27,27,27,27,27,28,28,28,28,28,28,28,28,28,28,28,28,28,28,28,28,28,28,28,28,28,28,28,28,28,29,29,29,29,29,29,29,29,29,29,29,29,29,29,29,29,29,29,29,30,30,30,30,30,30,30,30,30,30,30,30,30,30,30,30,30,30,30,30,30,30,30,30,30,31,31,31,31,31,31,31,31,31,31,31,31,31,31,31,31,31,31,31,32,32,32,32,32,32,32,32,32,32,32,32,32,32,32,32,32,32,33,33,33,33,33,33,33,33,33,33,33,33,33,33,33,33,33,33,33,33,33,33,33,33,33,33,34,34,34,34,34,34,34,34,34,34,34,34,34,34,34,34,34,34,34,34,35,35,35,35,35,35,35,35,35,35,35,35,35,35,35,35,35,35,35,35,35,36,36,36,36,36,36,36,36,36,36,36,37,37,37,37,37,37,37,37,38,38,38,38,38,38,38,38,38,38,38,38,38,38,38,38,38,39,39,39,39,39,39,39,39,39,39,39,39,39,39,39,39,40,40,40,40,40,40,40,40,40,40,40,40,40,40,40,40,41,41,41,41,41,41,41,41,41,42,42,42,42,42,42,42,42,42,42,42,42,42,42,42,43,43,43,43,43,43,44,44,44,44,44,44,44,44,44,44,44,44,44,44,45,45,45,45,45,45,45,45,45,45,45,45,45,46,46,46,46,46,46,46,46,47,47,47,47,47,47,47,47,47,47,48,48,48,48,48,48,48,48,48,48,48,49,49,49,49,49,49,50,50,50,50,50,50,51,51,51,51,51,51,51,51,52,52,52,52,52,52,53,53,53,53,53,53,53,54,54,54,54,54,55,55,55,55,55,56,56,56,56,57,57,57,58,58,59,59,60];
unsucc = [3,4,5,6,10,13,14,15,16,17,20,24,26,29,31,37,43,45,4,5,6,7,8,9,10,11,12,13,17,19,22,23,24,25,26,27,31,41,53,7,8,9,11,12,14,15,16,18,19,20,21,23,27,37,38,41,7,8,9,10,11,12,14,15,16,17,18,19,20,21,22,23,24,25,27,29,30,32,36,37,38,39,41,42,44,7,8,9,10,11,12,14,15,16,17,18,19,20,21,22,23,24,25,27,29,30,31,32,35,36,37,38,39,40,41,42,44,8,9,10,11,12,13,14,15,16,17,18,19,20,22,23,24,25,26,28,29,31,34,35,36,37,38,40,41,43,45,46,47,53,9,10,11,12,13,14,15,16,17,18,20,21,22,23,24,25,26,27,29,30,31,32,34,36,37,38,39,40,42,43,44,45,53,55,10,13,14,15,16,17,19,20,24,26,29,31,35,37,43,45,11,12,13,14,15,16,17,18,19,20,21,22,23,25,26,27,28,30,32,33,35,36,37,38,41,42,43,44,46,49,58,12,13,14,15,16,17,18,19,20,22,23,24,25,26,28,29,31,32,34,35,37,38,40,41,43,45,49,53,13,14,15,16,17,19,20,21,24,26,29,30,31,35,37,38,43,45,14,15,16,17,18,19,20,21,22,23,24,25,26,27,29,30,31,32,35,36,37,38,39,40,41,42,44,49,50,53,56,17,19,22,23,24,25,26,27,31,38,41,53,16,17,18,19,20,22,23,24,25,26,27,28,29,31,32,34,37,38,39,40,41,43,45,49,53,55,17,19,20,21,22,23,24,25,26,27,30,31,35,36,37,38,41,42,43,46,53,18,19,20,21,23,26,27,28,35,37,38,41,43,19,20,21,22,23,24,25,26,27,29,30,31,35,36,37,38,39,40,41,42,43,45,46,53,20,21,22,23,24,25,26,27,28,29,30,31,32,33,34,36,37,38,39,40,41,42,43,44,45,46,47,48,49,50,52,53,54,55,58,21,22,23,24,25,26,27,28,30,31,32,33,35,36,38,40,41,42,44,49,50,53,22,23,24,25,26,27,28,29,31,32,34,35,36,37,38,39,40,41,43,45,46,47,48,49,50,52,53,55,56,23,24,26,27,28,29,30,31,33,34,35,37,38,39,41,43,45,58,24,25,26,28,29,30,31,32,34,35,36,37,38,40,42,43,44,45,51,53,25,26,27,28,30,32,33,35,36,37,38,41,42,43,44,46,49,58,26,27,28,29,30,31,33,34,35,37,38,39,40,41,43,45,55,58,27,28,29,30,31,32,33,34,35,36,37,38,39,40,41,42,43,44,46,47,48,53,55,28,29,30,31,32,33,34,35,36,37,38,40,41,42,43,44,45,46,47,49,50,51,52,53,54,58,60,29,30,31,32,34,35,36,37,38,39,40,41,42,43,44,45,46,48,49,50,51,52,53,55,56,30,31,32,33,35,36,37,38,40,41,42,43,44,46,47,49,50,53,58,31,32,34,35,36,37,38,39,40,41,42,43,45,46,47,48,49,50,52,53,54,55,56,57,61,32,33,34,35,36,37,38,39,41,42,43,44,45,46,48,49,51,55,58,33,34,35,36,37,38,39,40,41,42,43,45,46,47,48,53,55,58,34,35,36,37,38,39,40,41,42,43,44,45,46,47,48,49,50,51,52,53,54,55,56,57,59,61,35,36,37,38,39,40,41,42,43,44,45,46,47,49,50,51,53,56,58,60,36,37,38,39,40,41,42,43,44,45,46,47,48,49,50,52,53,54,55,57,58,37,38,39,40,41,43,45,49,53,55,58,38,40,41,42,44,49,50,53,39,40,41,43,45,46,47,48,49,50,52,53,54,55,56,57,58,40,41,42,43,44,45,46,47,49,50,51,52,53,54,58,60,41,42,43,44,45,46,48,49,50,51,52,53,55,56,58,60,42,43,44,45,51,53,55,58,60,43,45,46,47,48,49,50,52,53,54,55,56,57,58,61,44,49,50,53,55,56,45,46,47,48,49,50,52,53,54,55,56,57,58,61,46,47,48,49,50,52,53,54,55,56,57,58,61,49,50,51,53,55,56,58,60,48,49,50,51,52,53,55,56,58,60,49,50,51,52,53,54,55,56,58,59,60,51,53,55,58,59,60,51,53,55,58,59,60,52,53,54,55,56,57,58,61,53,55,56,58,59,60,54,55,56,57,58,59,61,55,56,58,59,60,56,57,58,60,61,57,58,59,60,58,59,60,59,61,60,61,61];

USEFUL_RES = [{},
	{2,5,6,7,8,9,10,11,13,14,15,16},
	{2,3,4,5,7,8,9,12,14,15},
	{2,3,4,5,6,7,8,10,11,12,13,14,15,16},
	{6,8,10,11,14,16},
	{2,5,6,7,8,9,10,11,14,15,16},
	{2,3,4,5,6,7,8,9,10,11,12,14,15,16},
	{2,4,5,6,7,8,9,10,11,12,13,14,15,16},
	{2,4,5,7,8,11,12,14,15},
	{3,5,6,7,8,10,11,13,14,15,16},
	{5,7,8,15},
	{2,5,7,8,9,15},
	{4,5,7,8,12,14,15},
	{3,5,14},
	{2,4,5,7,8,9,12,15},
	{1,2,3,5,7,8,9,11,12,14,15,17},
	{6,8,10,11,13,14,16},
	{2,5,7,8,9,15},
	{4,12},
	{2,4,5,6,7,8,9,10,11,12,13,14,15,16},
	{6,8,10,11,13,14,16},
	{2,4,5,6,7,8,9,10,11,12,13,14,15,16},
	{2,5,6,7,8,9,10,11,13,14,15,16},
	{1,2,4,5,7,8,11,12,14,15,17},
	{2,3,4,5,6,7,8,9,10,11,12,13,14,15,16},
	{1,3,4,5,6,8,10,11,12,13,14,15,16,17},
	{2,5,6,7,8,9,10,11,13,14,15,16},
	{6,8,10,11,14,16},
	{11,14,15},
	{2,5,7,8,9,15},
	{2,4,5,7,8,9,11,12,14,15},
	{2,4,5,7,8,9,12,15},
	{6,10,11,14,15,16},
	{2,5,6,7,8,10,11,14,15,16},
	{3,5,14},
	{6,8,10,11,14,16},
	{1,2,3,5,6,7,8,10,11,12,14,15,16,17},
	{3,5,14},
	{2,5,7,8,15},
	{1,5,11,12,14,15,17},
	{2,5,6,7,8,10,11,14,15,16},
	{2,5,7,8,9,15},
	{2,3,4,5,6,7,8,9,10,11,12,14,15,16},
	{2,4,5,6,7,8,9,10,11,12,14,15,16},
	{3,4,5,6,8,10,11,12,13,14,16},
	{6,8,10,11,14,16},
	{4,12},
	{6,8,10,11,14,16},
	{3,4,5,6,8,10,11,12,13,14,16},
	{4,5,6,8,10,11,12,13,14,15,16},
	{2,4,5,6,7,8,10,11,12,13,14,15,16},
	{2,4,5,7,8,9,12,15},
	{4,5,6,8,10,11,12,14,16},
	{2,3,5,7,8,9,14,15},
	{2,4,5,6,7,8,9,10,11,12,13,14,15,16},
	{1,2,4,5,6,7,8,9,10,11,12,13,14,15,16,17},
	{2,5,6,7,8,10,11,13,14,15,16},
	{2,5,6,7,8,9,10,11,13,14,15,16},
	{2,3,5,6,7,8,9,10,11,13,14,15,16},
	{4,5,6,7,8,10,11,12,14,15,16},
	{6,8,10,11,13,14,16},
	{}];

POTENTIAL_ACT = [{16,24,26,37,40,56},
	{2,3,4,6,7,8,9,12,15,16,18,20,22,23,24,25,27,30,31,32,34,37,39,41,42,43,44,51,52,54,55,56,57,58,59},
	{3,4,7,10,14,16,25,26,35,37,38,43,45,49,54,59},
	{3,4,7,8,9,13,15,19,20,22,24,25,26,31,32,43,44,45,47,49,50,51,52,53,55,56,60},
	{2,3,4,6,7,8,9,10,11,12,13,14,15,16,18,20,22,23,24,25,26,27,30,31,32,34,35,37,38,39,40,41,42,43,44,45,49,50,51,52,53,54,55,56,57,58,59,60},
	{2,4,5,6,7,8,10,17,20,21,22,23,25,26,27,28,33,34,36,37,41,43,44,45,46,48,49,50,51,53,55,56,57,58,59,60,61},
	{2,3,4,6,7,8,9,10,11,12,13,15,16,18,20,22,23,24,25,27,30,31,32,34,37,39,41,42,43,44,51,52,54,55,56,57,58,59,60},
	{2,3,4,5,6,7,8,9,10,11,12,13,15,16,17,18,20,21,22,23,24,25,26,27,28,30,31,32,34,36,37,39,41,42,43,44,45,46,48,49,50,51,52,53,54,55,56,57,58,59,60,61},
	{2,3,6,7,8,12,15,16,18,20,22,23,25,27,30,31,32,42,43,44,52,54,55,56,58,59},
	{2,4,5,6,7,8,10,17,20,21,22,23,25,26,27,28,33,34,36,37,41,43,44,45,46,48,49,50,51,53,55,56,57,58,59,60,61},
	{2,4,5,6,7,8,9,10,16,17,20,21,22,23,24,25,26,27,28,29,31,33,34,36,37,40,41,43,44,45,46,48,49,50,51,53,55,56,57,58,59,60,61},
	{3,4,7,8,9,13,15,16,19,20,22,24,25,26,31,32,37,40,43,44,45,47,49,50,51,52,53,55,56,60},
	{2,4,8,10,17,20,21,22,23,25,26,27,45,49,50,51,55,56,57,58,59,61},
	{2,3,4,5,6,7,8,9,10,13,14,16,17,20,21,22,23,24,25,26,27,28,29,31,33,34,35,36,37,38,40,41,43,44,45,46,48,49,50,51,53,54,55,56,57,58,59,60,61},
	{2,3,4,6,7,8,9,10,11,12,13,15,16,18,20,22,23,24,25,26,27,29,30,31,32,33,34,37,39,40,41,42,43,44,50,51,52,54,55,56,57,58,59,60},
	{2,4,5,6,7,8,10,17,20,21,22,23,25,26,27,28,33,34,36,37,41,43,44,45,46,48,49,50,51,53,55,56,57,58,59,60,61},
	{16,24,26,37,40,56}];
